GLPSOL: GLPK LP/MIP Solver, v4.55
Parameter(s) specified in the command line:
 -m tmp.mod
Reading model section from tmp.mod...
Reading data section from tmp.mod...
4561 lines were read
Generating obj...
Generating kirhoff...
Generating init_charge...
Generating batt_size...
Model has been successfully generated
GLPK Simplex Optimizer, v4.55
5521 rows, 7888 columns, 16704 non-zeros
Preprocessing...
3905 rows, 7762 columns, 16420 non-zeros
Scaling...
 A: min|aij| =  1.000e+00  max|aij| =  1.000e+00  ratio =  1.000e+00
Problem data seem to be well scaled
Constructing initial basis...
Size of triangular part is 3257
      0: obj =   0.000000000e+00  infeas =  8.260e+02 (648)
    500: obj =   2.000000000e+00  infeas =  7.860e+02 (495)
   1000: obj =   4.000000000e+01  infeas =  2.100e+02 (393)
*  1449: obj =   7.800000000e+01  infeas =  0.000e+00 (364)
*  1500: obj =   7.200000000e+01  infeas =  0.000e+00 (364)
*  1817: obj =   2.300000000e+01  infeas =  0.000e+00 (350)
OPTIMAL LP SOLUTION FOUND
Time used:   0.5 secs
Memory used: 15.8 Mb (16577301 bytes)
#OUTPUT:
23
-19 -3 -3 -15 -14 -1 -2 0 0 -2 -6 -3 0 -1 0 0 0 0 -2 -1 0 0 0 0 -1 0 0 0 0 0 0 0 0 -5 0 0 0 0 -1 0 0 2 1 0 0 0 0 0 -14 0 0 0 0 1 0 0 0 -7 0 7 0 0 0 0 0 0 0 0 0 -14 0 0 0 0 1 0 0 0 7 0 0 0 0 0 0 1 0 1 0 -1 -3 0 0 1 0 1 0 0 0 0 0 0 0 0 0 0 0 0 -1 0 -2 0 0 0 0 -11 0 0 0 0 0 0 0 -1 0 0 0 0 0 -2 0 0 0 0 0 -1 0 0 0 0 0 0 0 0 0 0 1 0 0 0 0 0 0 0 0 -7 0 0 0 0 0 0 0 0 0 0 0 0 0 0 0 0 0 0 0 1 0 0 0 0 0 0 0 0 0 0 0 0 0 0 3 0 0 0 0 0 0 0 0 0 0 0 0 0 0 0 0 0 0 0 0 0 0 -9 0 0 0 -2 0 1 0 0 0 0 -14 0 0 0 0 0 0 0 0 0 0 0 0 8 0 0 0 -1 0 0 0 0 0 0 0 0 0 0 0 0 0 0 0 0 0 0 0 0 0 0 0 0 0 0 0 0 0 0 0 0 0 0 0 0 0 0 0 0 0 0 -14 0 0 0 0 0 0 0 0 0 0 0 0 0 0 0 0 -1 0 -1 0 0 0 0 0 -7 0 0 -1 0 0 0 0 0 0 0 2 1 0 0 0 0 0 0 0 0 0 0 0 0 0 -3 0 0 0 0 2 -1 13 0 1 0 0 -1 -7 1 0 -4 0 0 0 0 0 0 0 0 0 0 0 0 0 0 0 0 0 0 0 0 0 0 0 0 0 0 0 0 0 0 0 0 0 0 0 0 0 0 0 0 0 0 0 0 0 0 0 0 0 0 0 0 0 0 0 0 0 0 0 0 0 0 0 0 0 0 0 0 0 0 0 0 0 0 0 0 0 0 0 0 0 0 0 0 0 0 0 0 0 0 0 0 0 0 0 0 
-7 0 0 -10 -1 0 0 0 -3 -2 -18 -14 0 -1 0 0 0 -4 -1 0 0 0 0 0 0 0 0 0 0 0 0 0 0 0 -1 1 0 -5 -1 -9 0 4 1 -1 0 -1 0 0 0 0 0 -1 0 0 0 0 0 0 0 7 1 0 0 3 0 0 0 0 0 0 0 0 0 0 1 0 0 0 7 0 0 0 -1 1 -1 0 -2 1 4 0 -10 0 -1 0 -4 1 0 0 0 0 0 0 0 2 0 -1 0 0 0 0 0 0 0 0 0 -1 0 0 0 0 0 -1 0 0 0 0 0 0 0 0 -1 0 0 0 0 -1 0 -1 0 0 0 0 0 0 4 2 -1 0 0 0 0 0 0 0 0 0 0 0 0 0 0 0 0 0 0 0 0 0 0 0 0 0 1 0 0 0 0 0 0 0 0 0 0 0 -2 1 -2 0 0 0 0 0 0 0 0 0 0 0 0 0 0 0 -2 -1 0 0 0 0 0 0 0 -2 0 0 0 0 -10 0 0 1 0 0 0 0 -1 0 0 0 -15 0 0 0 0 -3 0 0 0 0 0 0 0 -1 0 0 0 0 -2 0 0 0 0 0 0 0 0 0 0 0 0 1 0 0 0 0 0 0 0 0 0 -1 0 0 0 0 0 0 0 0 0 0 0 0 0 0 0 0 0 0 0 0 0 0 0 0 0 0 0 0 0 1 0 -1 1 0 0 0 0 -2 0 -7 0 -1 -1 0 0 0 -1 0 0 0 0 1 -1 -4 0 0 0 0 0 0 0 -1 0 2 0 0 0 2 1 0 0 -1 1 0 0 -2 0 0 0 1 2 0 0 0 0 0 -1 0 0 1 0 0 0 0 0 0 0 0 0 0 -4 3 0 0 0 0 0 0 0 0 0 0 0 0 0 0 0 0 0 0 0 0 0 0 0 0 0 0 0 0 0 0 0 0 0 0 0 0 0 0 0 0 0 0 0 0 0 0 0 0 0 0 0 0 0 0 0 0 0 0 0 0 0 0 0 0 0 0 0 0 0 0 0 0 0 0 0 0 
-12 -1 0 -6 -10 0 0 0 -6 -1 -2 0 -1 -1 0 0 0 0 -1 0 0 0 0 0 0 0 0 -1 0 0 0 0 0 0 0 0 0 0 0 0 0 0 1 0 0 0 0 0 -10 0 0 0 0 0 -1 0 0 0 -1 0 -1 -5 0 1 0 0 0 0 0 -10 0 0 0 0 1 0 0 0 0 0 0 0 -1 0 0 -1 0 0 0 0 0 0 0 -1 0 1 0 0 0 0 -1 0 0 0 0 0 0 -1 -1 0 0 0 0 0 0 0 0 0 0 0 0 -1 0 0 -5 0 0 0 0 0 0 0 0 0 0 -1 0 0 0 0 0 0 0 0 0 0 0 0 0 0 0 0 0 0 0 0 0 0 0 0 0 0 0 0 -17 0 0 0 -1 0 0 0 0 0 0 14 0 0 0 0 1 0 0 0 -1 1 0 0 0 0 0 0 0 0 0 0 0 0 0 -5 -1 0 0 0 0 0 0 0 0 0 0 0 0 0 0 0 0 0 0 1 0 0 0 0 -11 0 0 0 0 0 0 0 0 0 0 0 0 0 0 0 0 0 0 0 0 0 0 0 1 -1 0 0 0 0 -1 0 0 0 0 0 0 0 0 0 0 0 0 0 0 0 0 0 0 0 0 0 0 0 0 0 0 0 0 0 0 0 0 0 0 0 0 0 0 0 0 0 0 0 0 0 0 0 0 0 0 0 0 0 0 0 0 0 0 0 -15 0 0 0 0 0 0 1 0 0 0 0 0 0 0 -5 -1 1 0 0 0 0 0 0 0 0 0 -1 -2 -1 14 0 0 0 0 0 0 0 1 1 0 0 0 0 0 0 0 0 0 0 0 0 0 0 0 0 0 0 0 0 0 0 0 0 0 0 0 0 0 0 0 0 0 0 0 0 0 0 0 0 0 0 0 0 0 0 0 0 0 0 0 0 0 0 0 0 0 0 0 0 0 0 0 0 0 0 0 0 0 0 0 0 0 0 0 0 0 0 0 0 0 0 0 0 0 0 0 0 0 0 0 0 0 0 
-7 -4 -3 -18 -2 2 0 1 -6 0 -8 0 -1 0 0 0 0 1 -1 1 0 0 -2 3 0 0 -2 -2 0 0 -2 0 0 -1 0 3 0 0 0 0 -11 -4 0 0 1 0 1 -1 0 0 0 0 0 1 0 -2 0 0 0 7 1 -4 0 -1 0 0 0 0 1 0 0 0 0 0 0 0 0 0 7 0 0 0 -2 3 0 0 -3 0 0 0 0 0 0 0 0 1 1 0 0 0 0 1 0 0 0 0 0 0 -1 0 2 0 0 0 0 0 0 1 0 2 0 0 0 0 -2 0 0 0 0 1 0 0 0 1 0 -1 0 0 0 0 0 0 0 0 0 0 0 -2 0 1 0 0 0 0 0 0 0 1 0 0 0 1 0 0 0 0 0 0 1 0 0 0 1 -11 0 0 0 0 0 5 1 0 0 0 2 -1 -3 0 0 -5 0 0 0 0 0 0 0 0 0 0 0 0 0 0 0 0 0 0 0 0 0 0 0 0 0 0 0 0 0 0 0 0 0 0 0 0 0 0 0 0 0 0 0 0 2 1 0 0 0 0 0 0 0 0 0 0 0 1 0 0 0 0 0 0 0 0 0 -1 0 0 0 0 0 0 0 0 0 0 0 0 0 0 0 0 0 0 5 0 0 0 0 0 0 0 0 2 0 0 0 0 0 0 0 0 0 0 0 0 0 1 0 -4 1 -1 2 0 0 -3 0 -7 -1 -3 0 0 0 1 0 0 0 0 0 1 0 0 0 2 -2 0 1 -2 1 -2 0 5 0 0 0 0 0 0 0 0 0 0 0 0 -1 0 0 0 0 -1 0 0 1 0 0 0 0 0 0 0 -5 0 0 0 0 -2 0 0 -1 0 0 0 0 0 0 0 0 0 0 0 0 0 0 0 0 0 0 0 0 0 0 0 0 0 0 0 0 0 0 0 0 0 0 0 0 0 0 0 0 0 0 0 0 0 0 0 0 0 0 0 0 0 0 0 0 0 0 0 0 0 0 0 0 0 0 0 0 0 0 0 0 0 0 0 0 0 
-19 4 3 -18 1 2 -2 0 -8 -13 -18 -8 1 1 -1 -1 -1 -1 0 -3 0 0 0 3 -1 0 0 1 1 0 -2 0 0 -5 -1 3 0 -1 0 -1 0 4 1 0 0 -1 0 -1 1 0 0 -1 1 1 -1 0 -2 -3 -1 4 1 -5 2 -2 0 0 0 0 0 1 0 0 0 0 1 0 -1 0 4 -14 0 0 -3 3 0 6 -3 0 0 -1 -6 0 0 6 0 1 0 0 0 0 -1 1 -1 0 0 1 0 -1 -2 0 -1 0 0 0 1 3 0 1 0 2 0 -1 0 -1 -3 0 0 0 -1 -2 0 0 1 1 0 -1 0 0 0 0 0 0 0 0 0 0 1 0 0 2 0 0 0 0 0 -3 0 1 0 0 0 0 0 0 0 0 0 0 1 0 0 0 -1 0 0 4 0 0 -15 2 2 0 0 0 0 -1 -3 2 0 -2 6 0 0 0 0 0 0 0 0 0 -1 0 0 1 0 0 0 0 0 0 0 1 0 2 0 0 0 -2 0 1 0 0 0 0 -2 0 0 0 0 0 0 0 0 0 0 0 0 4 0 0 0 0 -2 0 -19 0 1 -9 1 -1 0 0 0 0 -1 0 0 -1 0 0 0 -13 0 0 0 0 0 0 0 0 0 0 0 0 0 0 2 0 0 -1 0 -2 0 0 0 0 0 1 0 0 0 0 0 0 0 0 0 0 0 -1 0 -4 0 -1 0 1 0 -3 0 -4 -1 -3 0 0 2 0 1 0 0 1 2 1 0 0 -2 2 -2 0 1 -3 1 0 -2 3 0 -6 0 0 -1 0 2 -1 -1 -1 4 0 0 -1 -3 0 -1 -4 1 1 1 0 0 0 0 0 0 0 -2 -1 1 0 2 0 -1 0 -12 13 0 0 0 0 0 0 0 0 0 0 0 0 0 0 0 0 0 0 0 0 0 0 0 0 0 0 0 0 0 0 0 0 0 0 0 0 0 0 0 0 0 0 0 0 0 0 0 0 0 0 0 0 0 0 0 0 0 0 0 0 0 0 0 0 0 0 0 0 0 0 0 0 0 0 0 0 
-13 -4 -3 -10 -9 -1 -2 0 -1 0 0 0 -1 0 0 0 0 0 0 -3 0 0 0 0 0 0 0 0 0 0 0 0 0 2 0 0 0 0 0 0 0 4 0 0 -1 0 0 0 -9 0 0 0 0 0 0 0 0 -2 0 7 0 -1 0 0 0 0 0 0 0 -9 0 0 0 0 0 0 0 0 7 0 0 0 0 0 0 0 0 0 0 0 0 0 0 0 0 0 0 0 0 0 0 0 0 0 0 0 0 0 0 0 0 0 0 0 0 0 0 -1 0 0 0 0 0 0 1 0 0 0 0 0 0 0 0 0 0 0 0 0 0 0 0 0 0 0 0 0 0 0 0 2 0 0 0 0 0 -2 0 0 0 0 0 0 0 0 0 0 0 0 0 0 0 0 0 0 0 0 0 0 0 0 -1 0 0 0 0 0 0 2 0 0 0 0 0 0 0 0 0 0 2 0 0 0 0 0 0 0 0 0 0 0 0 0 0 2 0 0 0 -2 0 0 0 0 0 0 -4 0 0 0 0 0 0 0 0 0 0 0 0 4 0 0 0 0 -2 0 0 0 0 -9 0 0 0 0 0 0 0 0 0 0 0 0 0 0 0 0 0 0 0 0 0 0 0 0 0 0 0 0 0 0 0 0 0 -2 0 0 0 0 0 0 0 0 0 0 0 0 0 0 0 0 0 0 0 0 0 0 0 0 0 0 0 -7 0 0 0 0 0 -1 0 0 0 0 0 0 0 0 0 0 -2 0 0 1 0 0 0 0 0 0 -2 0 0 0 2 0 -2 0 6 0 0 -2 -2 0 0 -5 0 0 0 0 0 0 0 0 0 0 0 0 0 0 2 0 0 0 0 0 0 0 0 0 0 0 0 0 0 0 0 0 0 0 0 0 0 0 0 0 0 0 0 0 0 0 0 0 0 0 0 0 0 0 0 0 0 0 0 0 0 0 0 0 0 0 0 0 0 0 0 0 0 0 0 0 0 0 0 0 0 0 0 0 0 0 0 0 0 0 0 0 0 0 0 0 
-12 0 0 0 0 0 0 0 0 0 0 0 0 0 0 -1 0 0 0 -3 0 0 0 0 0 0 0 0 0 0 0 0 0 0 0 0 0 0 0 0 0 3 0 0 0 0 0 0 0 0 0 0 -12 0 0 0 0 0 0 0 0 0 0 0 0 0 0 0 0 0 0 0 0 0 0 0 -1 0 0 0 0 0 0 0 0 0 0 0 0 0 0 0 0 0 0 0 0 0 0 0 0 0 0 0 0 0 0 0 0 0 0 0 0 0 0 0 0 0 0 0 0 0 0 0 0 0 0 0 0 0 0 0 1 0 0 0 0 0 0 0 0 0 0 0 0 0 0 0 0 0 0 0 0 0 0 0 0 0 0 0 0 0 0 0 0 0 0 0 0 0 0 0 0 0 0 0 0 0 0 0 0 0 0 0 0 0 0 0 0 0 0 0 0 0 0 0 0 0 0 0 0 0 0 0 0 0 0 0 0 0 0 0 0 0 0 0 0 0 0 0 0 0 0 0 0 0 0 0 0 0 0 0 0 0 0 0 0 0 0 0 0 0 0 0 0 0 0 -3 0 0 0 0 0 0 0 0 0 0 0 0 0 0 0 0 0 0 0 0 0 0 0 0 0 0 0 0 0 0 0 0 0 0 0 0 0 0 0 1 0 0 0 0 0 0 0 0 0 0 0 0 0 0 0 0 0 0 0 0 0 0 0 0 0 0 0 0 0 0 0 0 0 0 0 0 0 0 0 0 0 0 0 0 0 0 0 0 0 0 0 0 0 0 0 0 0 0 0 0 0 0 0 0 0 0 0 0 0 0 0 0 0 0 0 0 0 0 0 0 -1 0 0 0 0 0 0 0 0 0 0 0 0 0 0 0 0 0 0 0 0 0 0 0 0 0 0 0 0 0 0 0 0 0 0 0 0 0 0 0 0 0 0 0 0 0 0 0 0 0 0 0 0 0 0 0 0 0 0 0 0 0 0 0 0 0 0 0 0 0 0 0 0 0 0 0 0 0 0 0 
-11 -2 -1 -9 0 0 0 0 -4 -3 0 0 -1 -1 0 0 0 0 -1 0 0 0 0 0 0 0 0 0 0 0 0 0 0 0 0 0 -1 0 -2 -1 0 0 0 0 -1 0 0 -1 0 0 0 0 0 0 0 0 0 0 0 0 0 -4 -1 -1 1 0 0 0 -1 0 0 0 0 0 0 0 0 0 0 0 0 0 0 1 0 0 0 0 1 0 3 0 0 0 -3 0 -1 0 1 0 0 -1 0 0 0 0 0 0 0 0 0 0 0 0 0 0 0 -1 0 0 0 0 0 0 -4 0 0 0 0 0 0 0 0 -1 0 0 0 0 0 0 0 0 0 0 1 0 0 0 0 0 0 0 0 0 0 0 0 -1 0 0 0 0 0 0 0 0 0 0 -1 0 0 0 1 0 0 0 0 0 0 5 5 0 0 0 0 -1 0 0 0 -5 -3 0 0 0 0 0 0 0 0 0 0 0 0 0 0 0 0 0 0 0 0 0 0 0 0 0 0 0 0 0 0 0 0 0 0 0 0 0 0 0 0 0 0 0 0 0 0 0 0 0 0 0 0 0 0 0 0 0 -1 0 0 0 0 0 1 0 0 0 0 1 0 0 0 0 0 0 0 0 0 0 0 0 0 0 0 0 5 0 0 0 0 0 0 0 0 0 0 0 -10 0 0 0 0 0 0 0 0 0 0 1 0 0 0 0 0 -1 0 0 0 0 -1 -1 0 -1 0 -1 0 0 0 0 0 0 0 -3 0 0 0 0 -1 -4 -1 0 6 0 0 3 0 0 0 0 0 0 0 0 0 0 0 0 0 0 0 3 0 -1 0 0 -1 0 0 0 0 0 -5 0 0 0 0 0 0 0 -6 5 0 0 0 0 0 0 0 0 0 0 0 0 0 0 0 0 0 0 0 0 0 0 0 0 0 0 0 0 0 0 0 0 0 0 0 0 0 0 0 0 0 0 0 0 0 0 0 0 0 0 0 0 0 0 0 0 0 0 0 0 0 0 0 0 0 0 0 0 0 0 0 0 0 0 0 0 
#OUTPUT END
Model has been successfully processed
